c 
c U(n,d) graph
c graph gen seed     : 89
c number of vertices : 20
c max number of edges: 400
c Euclidean distance : 0.400000
c data structure     : sparse
c
c           Graph Stats
c number of vertices  : 20
c nonisolated vertices: 20
c number of edges     : 94
c edge density        : 0.494737
c max degree          : 15
c avg degree          : 9.40
c min degree          : 3
p col 20 94
e 1 20
e 1 12
e 1 11
e 2 20
e 2 17
e 2 16
e 2 15
e 2 10
e 2 9
e 2 8
e 2 7
e 2 6
e 2 5
e 2 4
e 2 3
e 3 17
e 3 16
e 3 15
e 3 9
e 3 8
e 3 7
e 3 6
e 3 5
e 3 4
e 4 18
e 4 17
e 4 16
e 4 15
e 4 13
e 4 9
e 4 8
e 4 7
e 4 6
e 4 5
e 5 20
e 5 19
e 5 18
e 5 17
e 5 16
e 5 14
e 5 13
e 5 12
e 5 11
e 5 9
e 5 7
e 5 6
e 6 18
e 6 17
e 6 16
e 6 13
e 6 9
e 6 8
e 6 7
e 7 19
e 7 18
e 7 17
e 7 16
e 7 13
e 7 12
e 7 9
e 7 8
e 8 17
e 8 16
e 8 15
e 8 9
e 9 18
e 9 17
e 9 16
e 9 13
e 10 17
e 10 15
e 11 20
e 11 19
e 11 14
e 11 12
e 12 20
e 12 19
e 12 18
e 12 14
e 12 13
e 13 19
e 13 18
e 13 16
e 13 14
e 14 19
e 14 18
e 15 17
e 15 16
e 16 20
e 16 18
e 16 17
e 17 20
e 18 19
e 19 20
